************************************************************************
file with basedata            : mm13_.bas
initial value random generator: 1859685840
************************************************************************
projects                      :  1
jobs (incl. supersource/sink ):  12
horizon                       :  79
RESOURCES
  - renewable                 :  2   R
  - nonrenewable              :  2   N
  - doubly constrained        :  0   D
************************************************************************
PROJECT INFORMATION:
pronr.  #jobs rel.date duedate tardcost  MPM-Time
    1     10      0       13        3       13
************************************************************************
PRECEDENCE RELATIONS:
jobnr.    #modes  #successors   successors
   0        1          3           1   2   3
   1        3          1          10
   2        3          3           4   8   9
   3        3          3           5   8   9
   4        3          1           5
   5        3          2           6   7
   6        3          1          10
   7        3          1          10
   8        3          1          11
   9        3          1          11
  10        3          1          11
  11        1          0        
************************************************************************
REQUESTS/DURATIONS:
jobnr. mode duration  R 1  R 2  R 3  R 4  E(W 1)  E(W 2)  E(W 3)
------------------------------------------------------------------------
  0      1     0       0    0    0    0     0       0       0
  1      1     1       8    0    4    5     8       4       5
  2      1     2       9    0    9    8    18      18      16
  3      1     1       7    0    7    9     7       7       9
  4      1     1       0    4    6    7     4       6       7
  5      1     3       5    0    4   10    15      12      30
  6      1     4       6    0   10    7    24      40      28
  7      1     1       4    0   10    9     4      10       9
  8      1     6      10    0    9    8    60      54      48
  9      1     4       0   10    8    4    40      32      16
 10      1     3       7    0    7    7    21      21      21
 11      1     0       0    0    0    0     0       0       0
************************************************************************
RESOURCEAVAILABILITIES:
  R 1  R 2  R 3
   20   44   58
************************************************************************
RESOURCE LIMITS:
jobnr.  l(R 1)  u(R 1)  l(R 2)  u(R 2)  l(R 3)  u(R 3)
------------------------------------------------------------------------
  0        0       0       0       0       0       0
  1        4       8       2       4       3       5
  2        5       9       5       9       4       8
  3        4       7       4       7       5       9
  4        2       4       3       6       4       7
  5        3       5       2       4       5      10
  6        3       6       5      10       4       7
  7        2       4       5      10       5       9
  8        5      10       5       9       4       8
  9        5      10       4       8       2       4
 10        4       7       4       7       4       7
 11        0       0       0       0       0       0
************************************************************************
SCENARIOS:
------------------------------------------------------------------------
RESOURCE k = 1
s = 1: (0, 8, 23, 5, 6, 11, 14, 5, 42, 50, 13, 0)
s = 2: (0, 11, 22, 6, 4, 17, 20, 3, 71, 66, 32, 0)
s = 3: (0, 11, 18, 7, 5, 14, 19, 6, 59, 48, 28, 0)
s = 4: (0, 7, 19, 9, 4, 12, 17, 4, 48, 36, 29, 0)
s = 5: (0, 7, 11, 7, 3, 24, 24, 3, 50, 23, 15, 0)
s = 6: (0, 7, 21, 12, 4, 14, 30, 4, 37, 37, 19, 0)
s = 7: (0, 6, 19, 9, 5, 24, 21, 3, 55, 49, 16, 0)
s = 8: (0, 6, 26, 9, 6, 28, 27, 5, 82, 33, 22, 0)
s = 9: (0, 9, 19, 14, 5, 20, 15, 4, 69, 29, 28, 0)
s = 10: (0, 8, 21, 6, 3, 14, 19, 3, 49, 26, 25, 0)
s = 11: (0, 11, 13, 6, 3, 14, 14, 3, 57, 45, 33, 0)
s = 12: (0, 8, 12, 6, 7, 18, 15, 3, 57, 67, 26, 0)
s = 13: (0, 12, 10, 8, 4, 22, 40, 3, 73, 34, 15, 0)
s = 14: (0, 8, 23, 8, 5, 22, 35, 3, 55, 27, 16, 0)
s = 15: (0, 8, 15, 8, 3, 17, 31, 4, 74, 47, 13, 0)
s = 16: (0, 12, 14, 5, 3, 14, 36, 5, 48, 46, 14, 0)
s = 17: (0, 6, 29, 10, 3, 20, 16, 4, 43, 32, 18, 0)
s = 18: (0, 7, 16, 7, 3, 22, 18, 6, 61, 32, 19, 0)
s = 19: (0, 9, 21, 6, 6, 12, 20, 5, 59, 24, 25, 0)
s = 20: (0, 13, 19, 8, 3, 20, 28, 5, 48, 23, 29, 0)
s = 21: (0, 8, 19, 10, 5, 10, 29, 3, 62, 25, 14, 0)
s = 22: (0, 7, 22, 9, 6, 9, 17, 3, 87, 35, 21, 0)
s = 23: (0, 9, 17, 5, 5, 10, 15, 5, 83, 35, 32, 0)
s = 24: (0, 7, 16, 5, 4, 16, 28, 5, 65, 43, 14, 0)
s = 25: (0, 7, 25, 6, 5, 21, 26, 3, 64, 46, 26, 0)
s = 26: (0, 8, 11, 7, 5, 9, 24, 6, 68, 52, 16, 0)
s = 27: (0, 8, 18, 10, 4, 19, 16, 5, 64, 53, 21, 0)
s = 28: (0, 11, 13, 9, 5, 23, 20, 4, 45, 40, 32, 0)
s = 29: (0, 7, 19, 8, 4, 13, 27, 5, 46, 41, 24, 0)
s = 30: (0, 7, 15, 7, 3, 24, 43, 5, 77, 29, 26, 0)
s = 31: (0, 7, 13, 6, 7, 14, 22, 4, 39, 54, 30, 0)
s = 32: (0, 10, 20, 6, 3, 17, 34, 7, 48, 39, 20, 0)
s = 33: (0, 11, 22, 7, 7, 19, 32, 4, 55, 47, 28, 0)
s = 34: (0, 8, 19, 7, 4, 11, 31, 6, 48, 44, 19, 0)
s = 35: (0, 9, 13, 5, 5, 18, 17, 3, 49, 33, 21, 0)
s = 36: (0, 6, 13, 12, 4, 15, 19, 4, 67, 40, 25, 0)
s = 37: (0, 9, 14, 8, 6, 12, 17, 4, 88, 33, 35, 0)
s = 38: (0, 8, 23, 10, 3, 18, 31, 4, 43, 36, 19, 0)
s = 39: (0, 9, 19, 5, 4, 10, 21, 4, 73, 49, 20, 0)
s = 40: (0, 6, 22, 7, 6, 10, 24, 4, 51, 32, 24, 0)
s = 41: (0, 8, 23, 8, 7, 16, 27, 6, 67, 57, 33, 0)
s = 42: (0, 8, 17, 7, 6, 19, 32, 5, 94, 41, 27, 0)
s = 43: (0, 8, 25, 7, 4, 10, 38, 4, 34, 53, 26, 0)
s = 44: (0, 13, 12, 9, 8, 18, 15, 6, 51, 44, 24, 0)
s = 45: (0, 10, 13, 8, 7, 18, 17, 5, 46, 40, 19, 0)
s = 46: (0, 8, 18, 5, 4, 16, 23, 5, 78, 50, 28, 0)
s = 47: (0, 11, 24, 10, 5, 13, 35, 5, 61, 40, 41, 0)
s = 48: (0, 6, 26, 6, 5, 20, 37, 3, 47, 42, 23, 0)
s = 49: (0, 8, 16, 9, 4, 9, 20, 3, 68, 30, 20, 0)
s = 50: (0, 8, 18, 7, 7, 13, 26, 4, 81, 33, 19, 0)
s = 51: (0, 8, 15, 5, 5, 17, 26, 3, 75, 47, 24, 0)
s = 52: (0, 5, 21, 5, 6, 12, 25, 5, 50, 70, 23, 0)
s = 53: (0, 7, 14, 7, 5, 16, 21, 3, 66, 39, 17, 0)
s = 54: (0, 6, 21, 8, 5, 21, 26, 4, 35, 44, 25, 0)
s = 55: (0, 8, 15, 9, 6, 12, 23, 6, 68, 29, 24, 0)
s = 56: (0, 7, 19, 8, 6, 18, 40, 4, 41, 35, 17, 0)
s = 57: (0, 12, 29, 5, 6, 14, 25, 3, 41, 40, 19, 0)
s = 58: (0, 13, 22, 5, 3, 10, 29, 4, 89, 54, 20, 0)
s = 59: (0, 9, 14, 8, 7, 21, 31, 5, 78, 26, 20, 0)
s = 60: (0, 13, 17, 5, 5, 16, 32, 4, 78, 51, 20, 0)
s = 61: (0, 11, 17, 12, 3, 19, 26, 6, 82, 26, 18, 0)
s = 62: (0, 11, 16, 7, 3, 16, 23, 3, 41, 43, 37, 0)
s = 63: (0, 7, 23, 5, 3, 11, 33, 4, 54, 42, 16, 0)
s = 64: (0, 10, 19, 8, 4, 18, 24, 6, 42, 40, 19, 0)
s = 65: (0, 9, 27, 10, 6, 13, 32, 5, 57, 25, 32, 0)
s = 66: (0, 9, 33, 5, 4, 17, 27, 5, 36, 24, 26, 0)
s = 67: (0, 5, 18, 8, 3, 9, 25, 6, 49, 44, 23, 0)
s = 68: (0, 11, 14, 7, 3, 18, 21, 4, 80, 37, 20, 0)
s = 69: (0, 7, 20, 11, 4, 11, 37, 6, 42, 49, 26, 0)
s = 70: (0, 5, 11, 6, 4, 16, 19, 5, 59, 31, 29, 0)
s = 71: (0, 11, 18, 9, 3, 21, 14, 7, 49, 58, 16, 0)
s = 72: (0, 9, 13, 6, 3, 10, 19, 5, 59, 39, 15, 0)
s = 73: (0, 9, 16, 10, 3, 23, 21, 6, 56, 29, 18, 0)
s = 74: (0, 6, 19, 6, 3, 14, 25, 4, 48, 48, 31, 0)
s = 75: (0, 9, 11, 7, 5, 10, 32, 3, 42, 55, 22, 0)
s = 76: (0, 8, 15, 8, 5, 15, 33, 5, 72, 29, 29, 0)
s = 77: (0, 9, 19, 6, 3, 8, 22, 6, 55, 29, 26, 0)
s = 78: (0, 7, 11, 7, 3, 18, 25, 4, 48, 50, 22, 0)
s = 79: (0, 7, 15, 7, 3, 22, 37, 5, 67, 58, 14, 0)
s = 80: (0, 6, 22, 7, 6, 13, 32, 5, 46, 29, 14, 0)
s = 81: (0, 7, 17, 6, 4, 27, 23, 4, 54, 50, 23, 0)
s = 82: (0, 11, 28, 8, 3, 27, 33, 6, 63, 55, 22, 0)
s = 83: (0, 8, 15, 6, 4, 9, 36, 3, 84, 54, 16, 0)
s = 84: (0, 7, 13, 5, 5, 19, 25, 4, 39, 45, 17, 0)
s = 85: (0, 5, 11, 7, 5, 15, 32, 3, 57, 41, 28, 0)
s = 86: (0, 9, 14, 7, 6, 18, 20, 3, 89, 31, 15, 0)
s = 87: (0, 10, 29, 7, 3, 13, 20, 5, 51, 46, 14, 0)
s = 88: (0, 8, 26, 5, 3, 19, 27, 6, 51, 23, 28, 0)
s = 89: (0, 9, 16, 7, 4, 9, 23, 6, 63, 47, 16, 0)
s = 90: (0, 11, 21, 8, 5, 16, 23, 3, 79, 48, 13, 0)
s = 91: (0, 7, 11, 5, 4, 12, 26, 4, 68, 39, 26, 0)
s = 92: (0, 5, 18, 6, 4, 27, 20, 4, 60, 42, 17, 0)
s = 93: (0, 10, 20, 7, 5, 18, 14, 6, 47, 32, 21, 0)
s = 94: (0, 6, 27, 5, 5, 8, 15, 4, 75, 26, 30, 0)
s = 95: (0, 9, 29, 7, 3, 20, 16, 5, 80, 29, 16, 0)
s = 96: (0, 11, 18, 10, 4, 13, 27, 4, 60, 57, 15, 0)
s = 97: (0, 10, 11, 10, 5, 12, 30, 4, 56, 50, 21, 0)
s = 98: (0, 10, 15, 7, 4, 11, 19, 4, 65, 35, 31, 0)
s = 99: (0, 8, 12, 7, 7, 10, 18, 4, 85, 34, 21, 0)
s = 100: (0, 7, 18, 9, 6, 13, 41, 4, 67, 42, 33, 0)
s = 101: (0, 7, 16, 9, 5, 18, 27, 4, 54, 40, 17, 0)
s = 102: (0, 8, 28, 5, 4, 12, 39, 4, 69, 52, 23, 0)
s = 103: (0, 12, 12, 6, 4, 15, 33, 6, 35, 31, 22, 0)
s = 104: (0, 16, 13, 6, 3, 19, 31, 4, 46, 41, 22, 0)
s = 105: (0, 11, 12, 11, 5, 11, 21, 7, 44, 45, 15, 0)
s = 106: (0, 7, 20, 12, 6, 12, 24, 6, 44, 48, 27, 0)
s = 107: (0, 6, 12, 8, 5, 18, 21, 6, 41, 43, 28, 0)
s = 108: (0, 12, 26, 6, 3, 15, 15, 6, 45, 51, 14, 0)
s = 109: (0, 7, 13, 7, 4, 18, 29, 4, 50, 38, 18, 0)
s = 110: (0, 12, 14, 7, 3, 20, 40, 7, 46, 41, 27, 0)
s = 111: (0, 7, 22, 6, 5, 25, 26, 5, 43, 62, 23, 0)
s = 112: (0, 12, 15, 9, 3, 23, 22, 4, 67, 34, 12, 0)
s = 113: (0, 6, 13, 7, 4, 17, 21, 3, 73, 22, 19, 0)
s = 114: (0, 12, 21, 5, 3, 9, 21, 7, 61, 42, 26, 0)
s = 115: (0, 7, 28, 11, 3, 23, 34, 5, 60, 25, 27, 0)
s = 116: (0, 9, 14, 7, 3, 15, 28, 4, 77, 48, 24, 0)
s = 117: (0, 11, 18, 8, 5, 10, 18, 4, 39, 35, 25, 0)
s = 118: (0, 6, 17, 12, 5, 15, 24, 4, 71, 53, 20, 0)
s = 119: (0, 9, 22, 8, 5, 18, 17, 7, 40, 37, 34, 0)
s = 120: (0, 9, 22, 5, 4, 13, 28, 3, 66, 45, 13, 0)
s = 121: (0, 8, 15, 7, 4, 19, 15, 4, 51, 44, 22, 0)
s = 122: (0, 9, 11, 6, 5, 19, 17, 4, 67, 36, 17, 0)
s = 123: (0, 8, 14, 8, 6, 14, 24, 3, 60, 30, 26, 0)
s = 124: (0, 8, 22, 7, 5, 17, 32, 3, 35, 43, 24, 0)
s = 125: (0, 7, 21, 7, 4, 14, 28, 6, 59, 38, 26, 0)
s = 126: (0, 14, 20, 10, 3, 13, 14, 4, 61, 39, 19, 0)
s = 127: (0, 9, 27, 5, 4, 22, 26, 6, 67, 38, 20, 0)
s = 128: (0, 7, 11, 7, 4, 14, 15, 4, 49, 30, 21, 0)
s = 129: (0, 8, 16, 8, 4, 19, 27, 6, 43, 40, 18, 0)
s = 130: (0, 9, 30, 6, 5, 13, 23, 5, 76, 47, 20, 0)
s = 131: (0, 8, 22, 7, 6, 12, 26, 4, 61, 35, 12, 0)
s = 132: (0, 10, 21, 9, 3, 24, 23, 4, 59, 37, 22, 0)
s = 133: (0, 6, 18, 6, 6, 19, 15, 3, 38, 38, 19, 0)
s = 134: (0, 7, 16, 5, 6, 16, 24, 3, 76, 33, 24, 0)
s = 135: (0, 7, 17, 6, 3, 14, 28, 4, 60, 32, 14, 0)
s = 136: (0, 9, 19, 8, 5, 12, 16, 4, 84, 30, 22, 0)
s = 137: (0, 7, 26, 9, 5, 16, 25, 4, 94, 48, 13, 0)
s = 138: (0, 8, 14, 11, 4, 11, 15, 5, 36, 43, 29, 0)
s = 139: (0, 11, 18, 5, 5, 10, 24, 5, 45, 29, 15, 0)
s = 140: (0, 10, 11, 5, 3, 16, 43, 4, 64, 42, 16, 0)
s = 141: (0, 10, 24, 9, 5, 16, 18, 3, 51, 32, 17, 0)
s = 142: (0, 6, 25, 6, 3, 15, 19, 4, 78, 40, 25, 0)
s = 143: (0, 8, 16, 9, 7, 14, 27, 4, 81, 42, 26, 0)
s = 144: (0, 7, 23, 10, 5, 17, 25, 4, 46, 37, 31, 0)
s = 145: (0, 13, 12, 5, 3, 16, 28, 4, 55, 36, 15, 0)
s = 146: (0, 9, 27, 7, 5, 13, 24, 5, 68, 42, 22, 0)
s = 147: (0, 11, 35, 8, 4, 11, 21, 6, 41, 29, 30, 0)
s = 148: (0, 9, 15, 5, 6, 12, 13, 4, 97, 57, 21, 0)
s = 149: (0, 8, 24, 7, 3, 12, 36, 3, 57, 42, 18, 0)
s = 150: (0, 9, 14, 11, 3, 18, 22, 4, 40, 33, 22, 0)
s = 151: (0, 9, 15, 8, 5, 13, 18, 3, 52, 38, 17, 0)
s = 152: (0, 10, 28, 9, 6, 12, 39, 5, 92, 42, 24, 0)
s = 153: (0, 8, 18, 7, 5, 12, 20, 3, 49, 50, 16, 0)
s = 154: (0, 9, 23, 6, 5, 17, 33, 4, 62, 73, 15, 0)
s = 155: (0, 7, 20, 7, 5, 13, 25, 3, 116, 43, 25, 0)
s = 156: (0, 5, 20, 9, 3, 10, 33, 5, 67, 33, 21, 0)
s = 157: (0, 6, 16, 9, 5, 18, 25, 5, 52, 58, 31, 0)
s = 158: (0, 11, 16, 10, 4, 22, 20, 4, 73, 37, 17, 0)
s = 159: (0, 6, 21, 8, 6, 21, 23, 5, 89, 53, 19, 0)
s = 160: (0, 8, 27, 7, 5, 16, 15, 3, 74, 31, 17, 0)
s = 161: (0, 8, 21, 8, 5, 19, 19, 7, 41, 47, 20, 0)
s = 162: (0, 5, 11, 8, 4, 16, 35, 4, 77, 65, 13, 0)
s = 163: (0, 9, 31, 6, 5, 20, 23, 5, 44, 53, 27, 0)
s = 164: (0, 9, 18, 12, 4, 12, 45, 6, 36, 23, 21, 0)
s = 165: (0, 8, 26, 7, 4, 10, 32, 5, 54, 28, 22, 0)
s = 166: (0, 13, 21, 6, 4, 10, 23, 4, 44, 40, 15, 0)
s = 167: (0, 7, 20, 6, 5, 9, 20, 5, 55, 25, 20, 0)
s = 168: (0, 7, 24, 10, 4, 16, 38, 4, 41, 45, 14, 0)
s = 169: (0, 9, 24, 12, 6, 17, 20, 6, 61, 24, 41, 0)
s = 170: (0, 7, 13, 7, 5, 10, 18, 6, 46, 57, 21, 0)
s = 171: (0, 8, 13, 7, 4, 10, 26, 3, 115, 30, 13, 0)
s = 172: (0, 8, 21, 7, 4, 15, 33, 7, 79, 36, 22, 0)
s = 173: (0, 7, 18, 9, 5, 17, 14, 6, 60, 40, 36, 0)
s = 174: (0, 9, 20, 6, 7, 17, 23, 5, 85, 28, 13, 0)
s = 175: (0, 9, 20, 9, 3, 14, 20, 3, 43, 42, 37, 0)
s = 176: (0, 10, 12, 9, 3, 21, 34, 6, 75, 61, 14, 0)
s = 177: (0, 6, 28, 9, 5, 15, 23, 3, 60, 27, 18, 0)
s = 178: (0, 9, 15, 6, 4, 17, 29, 3, 71, 40, 17, 0)
s = 179: (0, 9, 17, 5, 3, 12, 25, 4, 52, 38, 13, 0)
s = 180: (0, 10, 16, 10, 4, 11, 18, 8, 80, 29, 33, 0)
s = 181: (0, 11, 11, 6, 4, 19, 17, 4, 52, 31, 14, 0)
s = 182: (0, 5, 12, 5, 5, 19, 25, 5, 57, 65, 18, 0)
s = 183: (0, 5, 19, 10, 5, 14, 22, 3, 42, 43, 28, 0)
s = 184: (0, 6, 13, 12, 5, 12, 18, 5, 79, 22, 16, 0)
s = 185: (0, 14, 18, 8, 3, 14, 26, 4, 70, 54, 20, 0)
s = 186: (0, 8, 15, 10, 4, 19, 31, 4, 52, 23, 19, 0)
s = 187: (0, 9, 16, 8, 3, 10, 21, 4, 52, 29, 25, 0)
s = 188: (0, 10, 21, 7, 4, 10, 17, 4, 70, 37, 23, 0)
s = 189: (0, 11, 18, 9, 5, 13, 30, 5, 34, 62, 14, 0)
s = 190: (0, 8, 18, 7, 5, 12, 14, 4, 73, 39, 31, 0)
s = 191: (0, 8, 13, 5, 6, 18, 24, 4, 80, 49, 17, 0)
s = 192: (0, 11, 23, 6, 4, 15, 22, 6, 55, 44, 23, 0)
s = 193: (0, 10, 15, 6, 5, 23, 29, 5, 48, 34, 26, 0)
s = 194: (0, 9, 12, 11, 5, 16, 19, 6, 73, 37, 24, 0)
s = 195: (0, 10, 26, 7, 7, 9, 17, 4, 81, 31, 28, 0)
s = 196: (0, 6, 18, 13, 6, 13, 30, 4, 46, 40, 36, 0)
s = 197: (0, 6, 20, 6, 5, 12, 19, 3, 57, 47, 14, 0)
s = 198: (0, 14, 15, 6, 6, 18, 20, 3, 59, 54, 16, 0)
s = 199: (0, 11, 15, 11, 3, 15, 22, 4, 71, 34, 16, 0)
s = 200: (0, 13, 12, 10, 4, 26, 31, 5, 57, 32, 18, 0)
------------------------------------------------------------------------
RESOURCE k = 2
s = 1: (0, 4, 23, 5, 9, 9, 24, 12, 38, 40, 13, 0)
s = 2: (0, 6, 22, 6, 6, 14, 32, 6, 64, 53, 32, 0)
s = 3: (0, 6, 18, 7, 8, 12, 31, 14, 53, 38, 28, 0)
s = 4: (0, 4, 19, 9, 6, 9, 27, 9, 44, 29, 29, 0)
s = 5: (0, 4, 11, 7, 5, 19, 39, 6, 45, 18, 15, 0)
s = 6: (0, 4, 21, 12, 5, 11, 50, 10, 34, 30, 19, 0)
s = 7: (0, 3, 19, 9, 7, 19, 35, 7, 50, 39, 16, 0)
s = 8: (0, 3, 26, 9, 9, 22, 44, 11, 74, 26, 22, 0)
s = 9: (0, 5, 19, 14, 7, 16, 25, 10, 62, 23, 28, 0)
s = 10: (0, 4, 21, 6, 5, 12, 31, 7, 44, 21, 25, 0)
s = 11: (0, 6, 13, 6, 5, 12, 23, 6, 51, 36, 33, 0)
s = 12: (0, 4, 12, 6, 10, 15, 25, 8, 52, 54, 26, 0)
s = 13: (0, 6, 10, 8, 6, 17, 67, 8, 66, 27, 15, 0)
s = 14: (0, 4, 23, 8, 7, 18, 58, 8, 50, 22, 16, 0)
s = 15: (0, 4, 15, 8, 4, 14, 52, 8, 67, 38, 13, 0)
s = 16: (0, 6, 14, 5, 4, 11, 60, 11, 44, 37, 14, 0)
s = 17: (0, 3, 29, 10, 4, 16, 27, 8, 39, 26, 18, 0)
s = 18: (0, 4, 16, 7, 4, 17, 30, 15, 55, 26, 19, 0)
s = 19: (0, 5, 21, 6, 8, 10, 34, 12, 53, 19, 25, 0)
s = 20: (0, 7, 19, 8, 4, 16, 46, 11, 44, 18, 29, 0)
s = 21: (0, 4, 19, 10, 7, 8, 49, 8, 56, 20, 14, 0)
s = 22: (0, 4, 22, 9, 9, 7, 28, 7, 78, 28, 21, 0)
s = 23: (0, 5, 17, 5, 8, 8, 24, 13, 74, 28, 32, 0)
s = 24: (0, 4, 16, 5, 5, 13, 46, 12, 58, 35, 14, 0)
s = 25: (0, 4, 25, 6, 7, 17, 42, 6, 58, 37, 26, 0)
s = 26: (0, 4, 11, 7, 7, 7, 40, 15, 61, 42, 16, 0)
s = 27: (0, 4, 18, 10, 6, 15, 26, 13, 57, 43, 21, 0)
s = 28: (0, 6, 13, 9, 7, 19, 33, 9, 41, 32, 32, 0)
s = 29: (0, 4, 19, 8, 6, 11, 44, 11, 42, 33, 24, 0)
s = 30: (0, 4, 15, 7, 5, 19, 71, 11, 69, 23, 26, 0)
s = 31: (0, 4, 13, 6, 10, 11, 36, 10, 35, 43, 30, 0)
s = 32: (0, 5, 20, 6, 5, 14, 57, 16, 43, 32, 20, 0)
s = 33: (0, 6, 22, 7, 10, 16, 54, 10, 49, 38, 28, 0)
s = 34: (0, 4, 19, 7, 6, 9, 51, 14, 44, 35, 19, 0)
s = 35: (0, 5, 13, 5, 7, 15, 27, 7, 44, 26, 21, 0)
s = 36: (0, 3, 13, 12, 6, 12, 31, 10, 60, 32, 25, 0)
s = 37: (0, 5, 14, 8, 9, 10, 27, 10, 79, 26, 35, 0)
s = 38: (0, 4, 23, 10, 5, 15, 51, 10, 39, 29, 19, 0)
s = 39: (0, 5, 19, 5, 6, 8, 35, 10, 66, 39, 20, 0)
s = 40: (0, 3, 22, 7, 8, 8, 40, 9, 46, 26, 24, 0)
s = 41: (0, 4, 23, 8, 10, 13, 45, 14, 61, 45, 33, 0)
s = 42: (0, 4, 17, 7, 9, 15, 53, 13, 85, 33, 27, 0)
s = 43: (0, 4, 25, 7, 6, 8, 63, 9, 30, 42, 26, 0)
s = 44: (0, 7, 12, 9, 11, 14, 24, 15, 46, 35, 24, 0)
s = 45: (0, 5, 13, 8, 10, 14, 28, 11, 42, 32, 19, 0)
s = 46: (0, 4, 18, 5, 5, 13, 38, 12, 70, 40, 28, 0)
s = 47: (0, 6, 24, 10, 7, 10, 58, 13, 55, 32, 41, 0)
s = 48: (0, 3, 26, 6, 7, 16, 61, 7, 42, 34, 23, 0)
s = 49: (0, 4, 16, 9, 5, 7, 33, 6, 62, 24, 20, 0)
s = 50: (0, 4, 18, 7, 10, 10, 43, 9, 73, 27, 19, 0)
s = 51: (0, 4, 15, 5, 7, 14, 44, 7, 67, 38, 24, 0)
s = 52: (0, 3, 21, 5, 8, 10, 42, 11, 45, 56, 23, 0)
s = 53: (0, 4, 14, 7, 8, 13, 35, 7, 60, 32, 17, 0)
s = 54: (0, 3, 21, 8, 8, 17, 43, 10, 32, 35, 25, 0)
s = 55: (0, 4, 15, 9, 9, 10, 37, 13, 61, 23, 24, 0)
s = 56: (0, 4, 19, 8, 9, 14, 66, 9, 37, 28, 17, 0)
s = 57: (0, 6, 29, 5, 8, 11, 41, 6, 37, 32, 19, 0)
s = 58: (0, 7, 22, 5, 5, 8, 49, 8, 80, 43, 20, 0)
s = 59: (0, 5, 14, 8, 10, 17, 51, 12, 71, 21, 20, 0)
s = 60: (0, 7, 17, 5, 7, 13, 53, 10, 70, 41, 20, 0)
s = 61: (0, 6, 17, 12, 4, 15, 43, 13, 74, 21, 18, 0)
s = 62: (0, 6, 16, 7, 4, 13, 38, 8, 37, 34, 37, 0)
s = 63: (0, 4, 23, 5, 4, 9, 55, 10, 49, 34, 16, 0)
s = 64: (0, 5, 19, 8, 6, 15, 39, 14, 38, 32, 19, 0)
s = 65: (0, 5, 27, 10, 8, 10, 52, 12, 52, 20, 32, 0)
s = 66: (0, 5, 33, 5, 5, 13, 45, 11, 33, 19, 26, 0)
s = 67: (0, 3, 18, 8, 4, 8, 42, 15, 44, 35, 23, 0)
s = 68: (0, 6, 14, 7, 4, 15, 34, 8, 72, 30, 20, 0)
s = 69: (0, 4, 20, 11, 6, 9, 62, 14, 38, 40, 26, 0)
s = 70: (0, 3, 11, 6, 6, 13, 31, 11, 53, 25, 29, 0)
s = 71: (0, 6, 18, 9, 5, 17, 22, 16, 44, 47, 16, 0)
s = 72: (0, 5, 13, 6, 4, 8, 31, 12, 53, 31, 15, 0)
s = 73: (0, 5, 16, 10, 5, 18, 35, 13, 51, 23, 18, 0)
s = 74: (0, 3, 19, 6, 4, 12, 42, 9, 43, 39, 31, 0)
s = 75: (0, 5, 11, 7, 8, 8, 53, 7, 37, 44, 22, 0)
s = 76: (0, 4, 15, 8, 7, 12, 54, 13, 65, 24, 29, 0)
s = 77: (0, 5, 19, 6, 4, 7, 37, 15, 49, 23, 26, 0)
s = 78: (0, 4, 11, 7, 4, 15, 42, 10, 43, 40, 22, 0)
s = 79: (0, 4, 15, 7, 4, 18, 61, 12, 60, 47, 14, 0)
s = 80: (0, 3, 22, 7, 9, 10, 52, 12, 42, 23, 14, 0)
s = 81: (0, 4, 17, 6, 6, 22, 38, 9, 49, 40, 23, 0)
s = 82: (0, 6, 28, 8, 5, 21, 55, 15, 57, 44, 22, 0)
s = 83: (0, 4, 15, 6, 6, 7, 59, 7, 75, 43, 16, 0)
s = 84: (0, 4, 13, 5, 7, 15, 41, 8, 35, 36, 17, 0)
s = 85: (0, 3, 11, 7, 8, 12, 53, 8, 52, 33, 28, 0)
s = 86: (0, 5, 14, 7, 9, 14, 33, 7, 81, 25, 15, 0)
s = 87: (0, 5, 29, 7, 4, 11, 32, 13, 46, 37, 14, 0)
s = 88: (0, 4, 26, 5, 5, 15, 44, 15, 46, 19, 28, 0)
s = 89: (0, 5, 16, 7, 6, 7, 38, 15, 57, 38, 16, 0)
s = 90: (0, 6, 21, 8, 8, 13, 38, 6, 71, 39, 13, 0)
s = 91: (0, 4, 11, 5, 6, 10, 42, 9, 61, 32, 26, 0)
s = 92: (0, 3, 18, 6, 6, 22, 32, 8, 54, 34, 17, 0)
s = 93: (0, 5, 20, 7, 7, 14, 23, 15, 42, 25, 21, 0)
s = 94: (0, 3, 27, 5, 8, 7, 25, 10, 68, 21, 30, 0)
s = 95: (0, 5, 29, 7, 5, 16, 26, 13, 72, 23, 16, 0)
s = 96: (0, 6, 18, 10, 6, 11, 45, 8, 54, 46, 15, 0)
s = 97: (0, 5, 11, 10, 8, 10, 49, 9, 50, 40, 21, 0)
s = 98: (0, 5, 15, 7, 6, 9, 32, 10, 58, 28, 31, 0)
s = 99: (0, 4, 12, 7, 10, 8, 30, 9, 76, 27, 21, 0)
s = 100: (0, 4, 18, 9, 9, 10, 67, 9, 60, 34, 33, 0)
s = 101: (0, 4, 16, 9, 7, 15, 45, 9, 49, 32, 17, 0)
s = 102: (0, 4, 28, 5, 5, 10, 65, 10, 63, 41, 23, 0)
s = 103: (0, 6, 12, 6, 6, 12, 55, 14, 32, 25, 22, 0)
s = 104: (0, 8, 13, 6, 5, 16, 52, 10, 42, 33, 22, 0)
s = 105: (0, 6, 12, 11, 7, 9, 35, 17, 40, 36, 15, 0)
s = 106: (0, 4, 20, 12, 9, 10, 40, 13, 40, 38, 27, 0)
s = 107: (0, 3, 12, 8, 7, 14, 34, 15, 37, 34, 28, 0)
s = 108: (0, 6, 26, 6, 5, 12, 25, 13, 40, 41, 14, 0)
s = 109: (0, 4, 13, 7, 6, 14, 49, 9, 45, 30, 18, 0)
s = 110: (0, 6, 14, 7, 4, 16, 66, 17, 42, 33, 27, 0)
s = 111: (0, 4, 22, 6, 7, 20, 44, 13, 39, 50, 23, 0)
s = 112: (0, 6, 15, 9, 4, 19, 37, 9, 60, 27, 12, 0)
s = 113: (0, 3, 13, 7, 6, 13, 34, 7, 66, 18, 19, 0)
s = 114: (0, 6, 21, 5, 5, 8, 34, 16, 55, 34, 26, 0)
s = 115: (0, 4, 28, 11, 4, 18, 57, 13, 54, 20, 27, 0)
s = 116: (0, 5, 14, 7, 4, 12, 46, 8, 70, 39, 24, 0)
s = 117: (0, 6, 18, 8, 7, 8, 29, 10, 35, 28, 25, 0)
s = 118: (0, 3, 17, 12, 8, 12, 39, 8, 64, 42, 20, 0)
s = 119: (0, 5, 22, 8, 7, 14, 28, 16, 36, 30, 34, 0)
s = 120: (0, 5, 22, 5, 6, 10, 46, 8, 59, 36, 13, 0)
s = 121: (0, 4, 15, 7, 5, 16, 25, 8, 46, 35, 22, 0)
s = 122: (0, 5, 11, 6, 8, 15, 28, 10, 60, 29, 17, 0)
s = 123: (0, 4, 14, 8, 8, 11, 39, 7, 54, 24, 26, 0)
s = 124: (0, 4, 22, 7, 8, 14, 52, 8, 32, 34, 24, 0)
s = 125: (0, 4, 21, 7, 6, 11, 47, 14, 53, 30, 26, 0)
s = 126: (0, 7, 20, 10, 5, 11, 23, 10, 55, 31, 19, 0)
s = 127: (0, 5, 27, 5, 6, 18, 43, 14, 61, 31, 20, 0)
s = 128: (0, 4, 11, 7, 6, 11, 25, 9, 44, 24, 21, 0)
s = 129: (0, 4, 16, 8, 6, 15, 45, 14, 39, 32, 18, 0)
s = 130: (0, 5, 30, 6, 7, 11, 37, 11, 69, 38, 20, 0)
s = 131: (0, 4, 22, 7, 9, 10, 43, 9, 55, 28, 12, 0)
s = 132: (0, 5, 21, 9, 5, 19, 38, 10, 54, 30, 22, 0)
s = 133: (0, 3, 18, 6, 9, 15, 25, 6, 35, 31, 19, 0)
s = 134: (0, 4, 16, 5, 9, 13, 40, 7, 69, 26, 24, 0)
s = 135: (0, 4, 17, 6, 4, 11, 46, 10, 54, 26, 14, 0)
s = 136: (0, 5, 19, 8, 8, 10, 26, 9, 75, 24, 22, 0)
s = 137: (0, 4, 26, 9, 7, 13, 42, 10, 84, 38, 13, 0)
s = 138: (0, 4, 14, 11, 6, 9, 25, 12, 32, 35, 29, 0)
s = 139: (0, 6, 18, 5, 7, 8, 40, 12, 41, 24, 15, 0)
s = 140: (0, 5, 11, 5, 4, 13, 72, 10, 58, 33, 16, 0)
s = 141: (0, 5, 24, 9, 7, 13, 29, 6, 46, 26, 17, 0)
s = 142: (0, 3, 25, 6, 4, 12, 31, 10, 70, 32, 25, 0)
s = 143: (0, 4, 16, 9, 11, 11, 44, 9, 73, 34, 26, 0)
s = 144: (0, 4, 23, 10, 7, 14, 42, 10, 42, 30, 31, 0)
s = 145: (0, 7, 12, 5, 5, 13, 47, 10, 50, 29, 15, 0)
s = 146: (0, 5, 27, 7, 7, 10, 39, 12, 61, 33, 22, 0)
s = 147: (0, 6, 35, 8, 5, 9, 35, 13, 37, 24, 30, 0)
s = 148: (0, 5, 15, 5, 9, 10, 21, 10, 87, 45, 21, 0)
s = 149: (0, 4, 24, 7, 5, 10, 59, 7, 52, 34, 18, 0)
s = 150: (0, 5, 14, 11, 4, 15, 36, 10, 36, 26, 22, 0)
s = 151: (0, 5, 15, 8, 8, 11, 29, 8, 47, 30, 17, 0)
s = 152: (0, 5, 28, 9, 9, 9, 65, 12, 83, 34, 24, 0)
s = 153: (0, 4, 18, 7, 8, 10, 33, 7, 44, 40, 16, 0)
s = 154: (0, 5, 23, 6, 7, 14, 55, 8, 56, 58, 15, 0)
s = 155: (0, 4, 20, 7, 7, 10, 42, 8, 105, 35, 25, 0)
s = 156: (0, 3, 20, 9, 5, 8, 55, 11, 60, 26, 21, 0)
s = 157: (0, 3, 16, 9, 8, 15, 42, 12, 47, 46, 31, 0)
s = 158: (0, 6, 16, 10, 6, 18, 33, 10, 66, 30, 17, 0)
s = 159: (0, 3, 21, 8, 8, 17, 37, 11, 80, 43, 19, 0)
s = 160: (0, 4, 27, 7, 7, 13, 25, 8, 66, 25, 17, 0)
s = 161: (0, 4, 21, 8, 8, 15, 31, 16, 37, 37, 20, 0)
s = 162: (0, 3, 11, 8, 6, 13, 57, 10, 69, 52, 13, 0)
s = 163: (0, 5, 31, 6, 7, 16, 38, 11, 39, 43, 27, 0)
s = 164: (0, 5, 18, 12, 6, 10, 74, 13, 32, 18, 21, 0)
s = 165: (0, 4, 26, 7, 5, 8, 53, 11, 48, 22, 22, 0)
s = 166: (0, 7, 21, 6, 5, 8, 38, 10, 40, 32, 15, 0)
s = 167: (0, 4, 20, 6, 7, 8, 33, 13, 50, 20, 20, 0)
s = 168: (0, 4, 24, 10, 6, 13, 63, 10, 37, 36, 14, 0)
s = 169: (0, 5, 24, 12, 9, 13, 33, 15, 55, 19, 41, 0)
s = 170: (0, 4, 13, 7, 8, 8, 30, 13, 41, 46, 21, 0)
s = 171: (0, 4, 13, 7, 6, 8, 42, 6, 104, 24, 13, 0)
s = 172: (0, 4, 21, 7, 5, 12, 55, 16, 71, 29, 22, 0)
s = 173: (0, 4, 18, 9, 7, 13, 24, 13, 54, 32, 36, 0)
s = 174: (0, 5, 20, 6, 11, 14, 38, 11, 76, 22, 13, 0)
s = 175: (0, 5, 20, 9, 4, 11, 34, 8, 39, 34, 37, 0)
s = 176: (0, 5, 12, 9, 4, 17, 56, 15, 67, 49, 14, 0)
s = 177: (0, 3, 28, 9, 8, 12, 38, 8, 54, 21, 18, 0)
s = 178: (0, 5, 15, 6, 5, 14, 48, 8, 64, 32, 17, 0)
s = 179: (0, 5, 17, 5, 4, 9, 42, 10, 47, 30, 13, 0)
s = 180: (0, 5, 16, 10, 6, 9, 29, 20, 72, 23, 33, 0)
s = 181: (0, 6, 11, 6, 6, 15, 28, 9, 46, 25, 14, 0)
s = 182: (0, 3, 12, 5, 8, 15, 42, 12, 52, 52, 18, 0)
s = 183: (0, 3, 19, 10, 7, 11, 36, 8, 38, 34, 28, 0)
s = 184: (0, 3, 13, 12, 7, 10, 30, 12, 71, 17, 16, 0)
s = 185: (0, 7, 18, 8, 5, 11, 43, 9, 63, 43, 20, 0)
s = 186: (0, 4, 15, 10, 6, 15, 52, 9, 47, 19, 19, 0)
s = 187: (0, 5, 16, 8, 4, 8, 34, 10, 47, 24, 25, 0)
s = 188: (0, 5, 21, 7, 5, 8, 29, 9, 63, 30, 23, 0)
s = 189: (0, 6, 18, 9, 7, 11, 49, 11, 31, 50, 14, 0)
s = 190: (0, 4, 18, 7, 7, 10, 22, 8, 66, 32, 31, 0)
s = 191: (0, 4, 13, 5, 8, 15, 39, 9, 72, 39, 17, 0)
s = 192: (0, 6, 23, 6, 6, 12, 36, 14, 50, 36, 23, 0)
s = 193: (0, 5, 15, 6, 8, 18, 48, 11, 43, 27, 26, 0)
s = 194: (0, 5, 12, 11, 7, 13, 32, 13, 65, 30, 24, 0)
s = 195: (0, 5, 26, 7, 10, 7, 29, 9, 73, 25, 28, 0)
s = 196: (0, 3, 18, 13, 8, 11, 50, 8, 41, 32, 36, 0)
s = 197: (0, 3, 20, 6, 8, 10, 31, 8, 51, 38, 14, 0)
s = 198: (0, 7, 15, 6, 9, 15, 33, 7, 53, 43, 16, 0)
s = 199: (0, 6, 15, 11, 4, 12, 36, 8, 64, 27, 16, 0)
s = 200: (0, 7, 12, 10, 6, 21, 52, 12, 52, 25, 18, 0)
------------------------------------------------------------------------
RESOURCE k = 3
s = 1: (0, 5, 20, 6, 11, 22, 17, 10, 34, 20, 13, 0)
s = 2: (0, 7, 19, 8, 7, 33, 23, 6, 57, 27, 32, 0)
s = 3: (0, 7, 16, 8, 9, 28, 22, 13, 47, 19, 28, 0)
s = 4: (0, 4, 17, 12, 6, 23, 19, 8, 39, 15, 29, 0)
s = 5: (0, 5, 10, 9, 5, 48, 27, 6, 40, 9, 15, 0)
s = 6: (0, 4, 19, 15, 6, 28, 35, 9, 30, 15, 19, 0)
s = 7: (0, 4, 17, 11, 8, 47, 24, 6, 44, 20, 16, 0)
s = 8: (0, 4, 23, 12, 10, 55, 31, 10, 66, 13, 22, 0)
s = 9: (0, 6, 17, 18, 8, 39, 18, 9, 55, 12, 28, 0)
s = 10: (0, 5, 18, 7, 5, 28, 22, 6, 39, 11, 25, 0)
s = 11: (0, 7, 12, 8, 6, 28, 16, 6, 46, 18, 33, 0)
s = 12: (0, 5, 11, 7, 12, 36, 18, 7, 46, 27, 26, 0)
s = 13: (0, 8, 9, 10, 7, 43, 47, 7, 59, 14, 15, 0)
s = 14: (0, 5, 20, 10, 8, 44, 41, 7, 44, 11, 16, 0)
s = 15: (0, 5, 13, 10, 5, 33, 36, 7, 60, 19, 13, 0)
s = 16: (0, 7, 13, 7, 5, 27, 42, 10, 39, 19, 14, 0)
s = 17: (0, 4, 26, 13, 5, 39, 19, 8, 34, 13, 18, 0)
s = 18: (0, 5, 14, 9, 5, 43, 21, 13, 49, 13, 19, 0)
s = 19: (0, 6, 19, 8, 10, 23, 24, 11, 48, 10, 25, 0)
s = 20: (0, 8, 17, 10, 4, 39, 32, 10, 39, 9, 29, 0)
s = 21: (0, 5, 17, 13, 8, 20, 34, 7, 50, 10, 14, 0)
s = 22: (0, 5, 20, 12, 11, 18, 20, 6, 70, 14, 21, 0)
s = 23: (0, 6, 16, 6, 9, 19, 17, 12, 66, 14, 32, 0)
s = 24: (0, 5, 14, 7, 6, 31, 33, 11, 52, 18, 14, 0)
s = 25: (0, 4, 22, 8, 8, 42, 30, 6, 51, 19, 26, 0)
s = 26: (0, 5, 9, 9, 8, 17, 28, 14, 55, 21, 16, 0)
s = 27: (0, 5, 16, 12, 7, 37, 18, 12, 51, 22, 21, 0)
s = 28: (0, 7, 12, 11, 8, 46, 24, 8, 36, 16, 32, 0)
s = 29: (0, 5, 17, 10, 7, 26, 31, 10, 37, 17, 24, 0)
s = 30: (0, 5, 13, 8, 6, 48, 50, 10, 62, 12, 26, 0)
s = 31: (0, 5, 12, 7, 11, 28, 26, 9, 31, 22, 30, 0)
s = 32: (0, 7, 18, 7, 6, 34, 40, 14, 38, 16, 20, 0)
s = 33: (0, 7, 20, 9, 12, 38, 38, 9, 44, 19, 28, 0)
s = 34: (0, 5, 17, 9, 7, 22, 36, 13, 39, 18, 19, 0)
s = 35: (0, 6, 12, 6, 9, 36, 19, 6, 39, 13, 21, 0)
s = 36: (0, 4, 11, 16, 7, 30, 22, 9, 54, 16, 25, 0)
s = 37: (0, 6, 13, 10, 10, 24, 19, 9, 70, 13, 35, 0)
s = 38: (0, 5, 20, 13, 6, 36, 36, 9, 35, 15, 19, 0)
s = 39: (0, 6, 17, 6, 7, 20, 25, 9, 59, 20, 20, 0)
s = 40: (0, 4, 19, 9, 9, 19, 28, 8, 41, 13, 24, 0)
s = 41: (0, 5, 21, 11, 11, 31, 32, 13, 54, 23, 33, 0)
s = 42: (0, 5, 15, 9, 10, 37, 37, 11, 75, 17, 27, 0)
s = 43: (0, 5, 22, 8, 7, 20, 44, 8, 27, 21, 26, 0)
s = 44: (0, 8, 11, 12, 13, 35, 17, 14, 41, 18, 24, 0)
s = 45: (0, 7, 12, 10, 12, 35, 20, 10, 37, 16, 19, 0)
s = 46: (0, 5, 16, 6, 6, 32, 27, 11, 62, 20, 28, 0)
s = 47: (0, 7, 21, 13, 8, 25, 41, 12, 49, 16, 41, 0)
s = 48: (0, 4, 23, 7, 8, 40, 43, 7, 37, 17, 23, 0)
s = 49: (0, 5, 14, 11, 6, 17, 24, 6, 55, 12, 20, 0)
s = 50: (0, 5, 16, 9, 11, 25, 30, 8, 65, 14, 19, 0)
s = 51: (0, 5, 14, 7, 8, 33, 31, 6, 60, 19, 24, 0)
s = 52: (0, 3, 19, 6, 10, 23, 30, 10, 40, 28, 23, 0)
s = 53: (0, 5, 12, 8, 9, 31, 24, 7, 53, 16, 17, 0)
s = 54: (0, 4, 19, 10, 9, 42, 30, 9, 28, 18, 25, 0)
s = 55: (0, 5, 14, 11, 10, 24, 26, 12, 54, 12, 24, 0)
s = 56: (0, 4, 17, 10, 10, 35, 47, 8, 33, 14, 17, 0)
s = 57: (0, 8, 26, 7, 9, 27, 29, 6, 33, 16, 19, 0)
s = 58: (0, 8, 20, 6, 6, 20, 34, 8, 71, 22, 20, 0)
s = 59: (0, 6, 13, 10, 12, 41, 36, 11, 63, 11, 20, 0)
s = 60: (0, 8, 16, 7, 8, 31, 37, 9, 62, 21, 20, 0)
s = 61: (0, 7, 15, 15, 5, 38, 30, 12, 66, 11, 18, 0)
s = 62: (0, 7, 14, 9, 4, 31, 27, 7, 33, 17, 37, 0)
s = 63: (0, 5, 21, 6, 5, 21, 38, 9, 43, 17, 16, 0)
s = 64: (0, 6, 17, 11, 7, 36, 27, 12, 33, 16, 19, 0)
s = 65: (0, 6, 24, 12, 10, 25, 37, 11, 46, 10, 32, 0)
s = 66: (0, 6, 30, 7, 6, 33, 32, 10, 29, 10, 26, 0)
s = 67: (0, 3, 16, 10, 5, 18, 30, 14, 39, 18, 23, 0)
s = 68: (0, 7, 13, 9, 5, 36, 24, 7, 64, 15, 20, 0)
s = 69: (0, 5, 18, 14, 7, 21, 44, 13, 34, 20, 26, 0)
s = 70: (0, 3, 10, 7, 7, 31, 22, 10, 47, 13, 29, 0)
s = 71: (0, 7, 16, 11, 6, 42, 16, 14, 39, 24, 16, 0)
s = 72: (0, 6, 12, 8, 5, 19, 22, 11, 48, 16, 15, 0)
s = 73: (0, 6, 15, 13, 5, 45, 24, 12, 45, 12, 18, 0)
s = 74: (0, 4, 17, 8, 5, 28, 30, 9, 38, 20, 31, 0)
s = 75: (0, 6, 10, 8, 9, 20, 37, 7, 33, 22, 22, 0)
s = 76: (0, 5, 14, 10, 8, 30, 38, 12, 58, 12, 29, 0)
s = 77: (0, 6, 17, 8, 4, 16, 26, 14, 44, 12, 26, 0)
s = 78: (0, 5, 10, 8, 5, 36, 29, 9, 38, 20, 22, 0)
s = 79: (0, 4, 13, 9, 5, 43, 43, 11, 54, 24, 14, 0)
s = 80: (0, 4, 20, 9, 11, 25, 37, 11, 37, 12, 14, 0)
s = 81: (0, 4, 16, 8, 7, 54, 27, 9, 44, 20, 23, 0)
s = 82: (0, 7, 25, 10, 5, 53, 39, 14, 51, 22, 22, 0)
s = 83: (0, 5, 14, 8, 7, 18, 41, 6, 67, 22, 16, 0)
s = 84: (0, 4, 12, 7, 9, 37, 29, 8, 31, 18, 17, 0)
s = 85: (0, 3, 10, 9, 9, 29, 37, 7, 46, 17, 28, 0)
s = 86: (0, 6, 13, 9, 10, 35, 23, 6, 72, 13, 15, 0)
s = 87: (0, 7, 26, 9, 4, 26, 23, 11, 41, 19, 14, 0)
s = 88: (0, 5, 23, 6, 6, 37, 31, 13, 41, 10, 28, 0)
s = 89: (0, 6, 14, 9, 7, 17, 27, 14, 51, 19, 16, 0)
s = 90: (0, 7, 19, 11, 9, 32, 27, 6, 63, 20, 13, 0)
s = 91: (0, 4, 10, 7, 7, 24, 30, 8, 54, 16, 26, 0)
s = 92: (0, 3, 16, 8, 6, 54, 23, 8, 48, 17, 17, 0)
s = 93: (0, 6, 17, 9, 8, 35, 16, 14, 38, 13, 21, 0)
s = 94: (0, 4, 24, 6, 9, 16, 18, 9, 60, 11, 30, 0)
s = 95: (0, 6, 26, 9, 6, 40, 19, 12, 64, 12, 16, 0)
s = 96: (0, 7, 16, 13, 7, 26, 32, 7, 48, 23, 15, 0)
s = 97: (0, 7, 9, 13, 9, 24, 34, 8, 45, 20, 21, 0)
s = 98: (0, 6, 13, 8, 7, 22, 22, 9, 52, 14, 31, 0)
s = 99: (0, 5, 11, 8, 11, 19, 21, 8, 68, 14, 21, 0)
s = 100: (0, 5, 16, 11, 10, 25, 47, 8, 54, 17, 33, 0)
s = 101: (0, 5, 14, 12, 9, 36, 32, 8, 43, 16, 17, 0)
s = 102: (0, 5, 25, 7, 6, 23, 46, 9, 56, 21, 23, 0)
s = 103: (0, 8, 11, 8, 6, 29, 39, 13, 28, 13, 22, 0)
s = 104: (0, 10, 12, 8, 5, 38, 36, 9, 37, 17, 22, 0)
s = 105: (0, 7, 11, 14, 8, 22, 25, 15, 35, 18, 15, 0)
s = 106: (0, 5, 18, 15, 11, 24, 28, 12, 36, 19, 27, 0)
s = 107: (0, 4, 11, 11, 8, 35, 24, 14, 33, 17, 28, 0)
s = 108: (0, 8, 24, 8, 5, 30, 18, 12, 36, 21, 14, 0)
s = 109: (0, 5, 11, 9, 7, 35, 34, 9, 40, 15, 18, 0)
s = 110: (0, 8, 12, 9, 5, 40, 46, 15, 37, 17, 27, 0)
s = 111: (0, 4, 20, 7, 8, 50, 31, 11, 35, 25, 23, 0)
s = 112: (0, 8, 13, 11, 5, 46, 26, 9, 54, 14, 12, 0)
s = 113: (0, 4, 11, 8, 7, 33, 24, 6, 58, 9, 19, 0)
s = 114: (0, 8, 18, 6, 5, 18, 24, 15, 49, 17, 26, 0)
s = 115: (0, 4, 25, 14, 5, 45, 40, 12, 48, 10, 27, 0)
s = 116: (0, 6, 13, 8, 5, 29, 32, 7, 62, 20, 24, 0)
s = 117: (0, 7, 16, 10, 9, 20, 20, 9, 31, 14, 25, 0)
s = 118: (0, 4, 16, 15, 9, 29, 27, 8, 57, 21, 20, 0)
s = 119: (0, 6, 20, 10, 8, 35, 20, 15, 32, 15, 34, 0)
s = 120: (0, 6, 20, 6, 6, 25, 32, 7, 53, 18, 13, 0)
s = 121: (0, 5, 13, 8, 6, 38, 18, 7, 41, 18, 22, 0)
s = 122: (0, 6, 9, 8, 9, 37, 20, 9, 54, 15, 17, 0)
s = 123: (0, 5, 12, 10, 9, 27, 27, 6, 48, 12, 26, 0)
s = 124: (0, 5, 20, 9, 9, 33, 37, 7, 28, 17, 24, 0)
s = 125: (0, 4, 18, 8, 7, 27, 33, 13, 47, 15, 26, 0)
s = 126: (0, 9, 18, 13, 6, 26, 17, 9, 49, 16, 19, 0)
s = 127: (0, 6, 24, 6, 7, 44, 30, 13, 54, 16, 20, 0)
s = 128: (0, 5, 10, 9, 7, 28, 18, 8, 39, 12, 21, 0)
s = 129: (0, 5, 14, 10, 7, 38, 32, 13, 34, 16, 18, 0)
s = 130: (0, 6, 27, 8, 8, 26, 26, 10, 61, 19, 20, 0)
s = 131: (0, 5, 20, 8, 10, 23, 30, 8, 49, 14, 12, 0)
s = 132: (0, 6, 19, 12, 5, 47, 27, 9, 48, 15, 22, 0)
s = 133: (0, 4, 16, 7, 10, 38, 18, 5, 31, 16, 19, 0)
s = 134: (0, 5, 14, 6, 10, 31, 28, 6, 61, 13, 24, 0)
s = 135: (0, 5, 15, 7, 5, 27, 32, 9, 48, 13, 14, 0)
s = 136: (0, 6, 17, 10, 9, 23, 18, 8, 67, 12, 22, 0)
s = 137: (0, 5, 23, 11, 8, 31, 29, 9, 75, 19, 13, 0)
s = 138: (0, 5, 13, 14, 7, 22, 17, 11, 29, 18, 29, 0)
s = 139: (0, 7, 16, 6, 8, 20, 28, 11, 36, 12, 15, 0)
s = 140: (0, 7, 10, 6, 5, 31, 50, 9, 52, 17, 16, 0)
s = 141: (0, 7, 21, 11, 8, 31, 20, 5, 41, 13, 17, 0)
s = 142: (0, 4, 22, 8, 5, 30, 22, 9, 62, 16, 25, 0)
s = 143: (0, 5, 14, 12, 12, 27, 31, 8, 65, 17, 26, 0)
s = 144: (0, 4, 20, 13, 8, 34, 30, 9, 37, 15, 31, 0)
s = 145: (0, 8, 10, 6, 5, 32, 33, 9, 44, 15, 15, 0)
s = 146: (0, 6, 24, 8, 8, 25, 28, 11, 54, 17, 22, 0)
s = 147: (0, 7, 31, 10, 6, 22, 25, 12, 33, 12, 30, 0)
s = 148: (0, 6, 14, 7, 10, 24, 15, 9, 77, 23, 21, 0)
s = 149: (0, 5, 22, 9, 6, 24, 42, 7, 46, 17, 18, 0)
s = 150: (0, 6, 13, 14, 5, 36, 25, 9, 32, 13, 22, 0)
s = 151: (0, 6, 13, 10, 9, 26, 20, 7, 41, 15, 17, 0)
s = 152: (0, 6, 25, 12, 10, 23, 45, 10, 74, 17, 24, 0)
s = 153: (0, 5, 16, 9, 9, 24, 23, 6, 39, 20, 16, 0)
s = 154: (0, 6, 20, 7, 8, 34, 39, 7, 50, 29, 15, 0)
s = 155: (0, 5, 17, 8, 8, 25, 29, 7, 93, 18, 25, 0)
s = 156: (0, 3, 17, 11, 6, 20, 38, 10, 54, 13, 21, 0)
s = 157: (0, 4, 15, 12, 9, 36, 30, 11, 42, 23, 31, 0)
s = 158: (0, 7, 14, 13, 7, 44, 23, 9, 59, 15, 17, 0)
s = 159: (0, 4, 19, 10, 9, 42, 26, 10, 71, 22, 19, 0)
s = 160: (0, 5, 24, 9, 8, 31, 18, 7, 59, 13, 17, 0)
s = 161: (0, 5, 18, 11, 9, 37, 22, 15, 33, 19, 20, 0)
s = 162: (0, 3, 10, 10, 7, 31, 40, 9, 61, 26, 13, 0)
s = 163: (0, 6, 27, 7, 9, 39, 26, 10, 35, 22, 27, 0)
s = 164: (0, 6, 16, 16, 7, 24, 52, 12, 29, 9, 21, 0)
s = 165: (0, 5, 23, 8, 6, 19, 37, 10, 43, 11, 22, 0)
s = 166: (0, 8, 18, 8, 6, 19, 26, 9, 35, 16, 15, 0)
s = 167: (0, 4, 17, 8, 9, 18, 23, 12, 44, 10, 20, 0)
s = 168: (0, 5, 22, 12, 7, 31, 44, 9, 33, 18, 14, 0)
s = 169: (0, 6, 22, 15, 10, 33, 23, 13, 49, 10, 41, 0)
s = 170: (0, 5, 12, 8, 9, 20, 21, 12, 37, 23, 21, 0)
s = 171: (0, 5, 12, 9, 7, 19, 30, 6, 92, 12, 13, 0)
s = 172: (0, 5, 19, 9, 6, 29, 39, 14, 63, 15, 22, 0)
s = 173: (0, 4, 16, 11, 9, 33, 17, 12, 48, 16, 36, 0)
s = 174: (0, 6, 18, 7, 12, 34, 27, 10, 68, 11, 13, 0)
s = 175: (0, 6, 18, 11, 5, 27, 24, 7, 35, 17, 37, 0)
s = 176: (0, 6, 11, 11, 5, 41, 39, 14, 60, 25, 14, 0)
s = 177: (0, 4, 25, 11, 9, 29, 27, 7, 48, 11, 18, 0)
s = 178: (0, 6, 14, 8, 6, 34, 34, 7, 57, 16, 17, 0)
s = 179: (0, 6, 15, 6, 5, 23, 29, 9, 42, 15, 13, 0)
s = 180: (0, 6, 14, 13, 7, 22, 20, 18, 64, 12, 33, 0)
s = 181: (0, 7, 10, 7, 7, 37, 20, 8, 41, 13, 14, 0)
s = 182: (0, 3, 11, 6, 9, 37, 30, 11, 46, 26, 18, 0)
s = 183: (0, 3, 17, 13, 8, 28, 26, 7, 34, 17, 28, 0)
s = 184: (0, 4, 12, 15, 8, 24, 21, 11, 63, 9, 16, 0)
s = 185: (0, 9, 16, 10, 6, 28, 30, 9, 56, 22, 20, 0)
s = 186: (0, 5, 13, 13, 7, 38, 37, 8, 42, 10, 19, 0)
s = 187: (0, 6, 14, 11, 5, 20, 24, 9, 42, 12, 25, 0)
s = 188: (0, 7, 19, 9, 6, 19, 20, 8, 56, 15, 23, 0)
s = 189: (0, 7, 16, 11, 8, 26, 34, 10, 27, 25, 14, 0)
s = 190: (0, 5, 16, 9, 8, 24, 16, 7, 59, 16, 31, 0)
s = 191: (0, 5, 12, 6, 10, 36, 27, 8, 64, 20, 17, 0)
s = 192: (0, 7, 21, 8, 7, 29, 26, 13, 44, 18, 23, 0)
s = 193: (0, 6, 13, 8, 9, 45, 34, 10, 38, 14, 26, 0)
s = 194: (0, 6, 11, 14, 8, 31, 23, 12, 58, 15, 24, 0)
s = 195: (0, 7, 23, 9, 12, 17, 20, 8, 65, 13, 28, 0)
s = 196: (0, 4, 16, 16, 10, 26, 35, 8, 37, 16, 36, 0)
s = 197: (0, 4, 18, 8, 9, 23, 22, 7, 46, 19, 14, 0)
s = 198: (0, 9, 13, 8, 11, 36, 23, 6, 47, 22, 16, 0)
s = 199: (0, 7, 14, 15, 5, 29, 25, 7, 57, 14, 16, 0)
s = 200: (0, 8, 11, 12, 7, 52, 37, 11, 46, 13, 18, 0)
************************************************************************
ES/LS-VALUES:
jobnr.   ES(i)    LS(i)
------------------------------------------------------------------------
  0        0        0
  1        0       71
  2        0       53
  3        0       57
  4        3       57
  5        5       59
  6       10       65
  7       10       71
  8        3       67
  9        3       71
 10       17       73
 11       22       79
************************************************************************
BIG-M-VALUES:
M1 = 69, M2 = 314
************************************************************************
